# Objective value = 37.0
xobj 37.0
x0_r1 3.2727726778647437e-15
x1_r1 3.964710504344993e-15
x2_r1 -0.0
x3_r1 3.4638091006566896e-15
y0_r1 -0.0
y1_r1 3.7322575585641005e-15
y2_r1 3.739196452468008e-15
y3_r1 -0.0
SH0_r1 3.711440876852379e-15
SL0_r1 -0.0
x4_r1 2.6298407895808396e-15
x5_r1 -4.669875597329565e-15
x6_r1 -6.38378239159465e-15
x7_r1 -6.161737786669619e-15
y4_r1 3.400058012914542e-15
y5_r1 -8.477593627098656e-15
y6_r1 -5.4583074171610235e-15
y7_r1 -0.0
SH1_r1 -5.4583074171610235e-15
SL1_r1 -0.0
x8_r1 -6.175615574477433e-15
x9_r1 3.712308238590367e-15
x10_r1 -0.0
x11_r1 -0.0
y8_r1 5.35682609381638e-15
y9_r1 5.334274688628682e-16
y10_r1 5.334274688628682e-16
y11_r1 -0.0
SH2_r1 5.334274688628682e-16
SL2_r1 -0.0
x12_r1 0.0
x13_r1 0.0
x14_r1 0.0
x15_r1 0.0
y12_r1 -0.0
y13_r1 -0.0
y14_r1 0.0
y15_r1 -0.0
SH3_r1 0.0
SL3_r1 -0.0
x16_r1 -0.0
x17_r1 -0.0
x18_r1 -0.0
x19_r1 -4.702835343373124e-15
y16_r1 -0.0
y17_r1 -4.69416172599324e-15
y18_r1 -4.69416172599324e-15
y19_r1 -4.69416172599324e-15
SH4_r1 -4.702835343373124e-15
SL4_r1 -0.0
x20_r1 -0.0
x21_r1 -0.0
x22_r1 -0.0
x23_r1 -0.0
y20_r1 -0.0
y21_r1 -4.660334618211692e-15
y22_r1 -9.822004320980682e-15
y23_r1 -4.6629367034256575e-15
SH5_r1 -4.660334618211692e-15
SL5_r1 -0.0
x24_r1 -0.0
x25_r1 -0.0
x26_r1 -0.0
x27_r1 -0.0
y24_r1 -0.0
y25_r1 0.0
y26_r1 -0.0
y27_r1 0.0
SH6_r1 0.0
SL6_r1 -0.0
x28_r1 1.1579279202145187e-15
x29_r1 1.469570992673752e-14
x30_r1 1.4096362965787534e-14
x31_r1 1.5909148998183298e-14
y28_r1 -0.0
y29_r1 4.152928001488476e-15
y30_r1 1.4096362965787534e-14
y31_r1 1.4096362965787534e-14
SH7_r1 1.4061668496267998e-14
SL7_r1 -0.0
x32_r1 0.0
x33_r1 -0.0
x34_r1 -0.0
x35_r1 -4.833373284940379e-16
y32_r1 -0.0
y33_r1 -4.724953067691828e-16
y34_r1 -4.724953067691828e-16
y35_r1 -4.796510411075872e-16
SH8_r1 -4.787836793695988e-16
SL8_r1 -0.0
x36_r1 -5.91107024439097e-16
x37_r1 -4.967814354328581e-16
x38_r1 -2.872593656000344e-16
x39_r1 -3.694961003830599e-16
y36_r1 -1.8995222061946038e-16
y37_r1 -4.863730945769973e-16
y38_r1 -1.5525775109992423e-16
y39_r1 -4.863730945769973e-16
SH9_r1 -4.85722573273506e-16
SL9_r1 -0.0
x40_r1 -0.0
x41_r1 -0.0
x42_r1 -0.0
x43_r1 -0.0
y40_r1 -0.0
y41_r1 -0.0
y42_r1 -0.0
y43_r1 -0.0
SH10_r1 -0.0
SL10_r1 -0.0
x44_r1 6.938893903907228e-18
x45_r1 0.0
x46_r1 -0.0
x47_r1 -0.0
y44_r1 -0.0
y45_r1 -1.3877787807814457e-17
y46_r1 -0.0
y47_r1 0.0
SH11_r1 0.0
SL11_r1 -0.0
x48_r1 -5.2197829392142125e-15
x49_r1 4.075732806807508e-15
x50_r1 -9.419548474554063e-15
x51_r1 -1.05835479269345e-14
y48_r1 -0.0
y49_r1 1.5737411374061594e-14
y50_r1 -0.0
y51_r1 0.0
SH12_r1 0.0
SL12_r1 -0.0
x52_r1 5.985609143749349e-16
x53_r1 5.403663627667754e-16
x54_r1 0.0
x55_r1 0.0
y52_r1 -0.0
y53_r1 1.6716229095381507e-15
y54_r1 8.645428123399412e-16
y55_r1 0.0
SH13_r1 -0.0
SL13_r1 -0.0
x56_r1 -2.5630539357557325e-15
x57_r1 -3.4746511223815446e-15
x58_r1 0.0
x59_r1 -2.454633718507182e-15
y56_r1 -0.0
y57_r1 5.901529265273098e-15
y58_r1 3.485926824975394e-15
y59_r1 0.0
SH14_r1 -0.0
SL14_r1 -0.0
x60_r1 -0.0
x61_r1 0.9999999999999991
x62_r1 0.9999999999999993
x63_r1 0.9999999999999993
y60_r1 -0.0
y61_r1 -0.0
y62_r1 -0.0
y63_r1 0.9999999999999993
SH15_r1 0.9999999999999993
SL15_r1 -0.0
y0_r2 -0.0
y1_r2 -0.0
y2_r2 -1.0824674490095276e-14
y3_r2 8.881784197001252e-16
SH0_r2 -5.238864897449957e-16
SL0_r2 -0.0
y4_r2 -0.0
y5_r2 -0.0
y6_r2 -0.0
y7_r2 -3.2959746043559335e-16
SH1_r2 -3.2959746043559335e-16
SL1_r2 -0.0
y8_r2 -0.0
y9_r2 0.0
y10_r2 7.598088824778415e-16
y11_r2 -0.0
SH2_r2 0.0
SL2_r2 -0.0
y12_r2 -0.0
y13_r2 -0.0
y14_r2 -0.0
y15_r2 -0.0
SH3_r2 0.0
SL3_r2 -0.0
y16_r2 -4.122136659789888e-15
y17_r2 -7.861333112257896e-15
y18_r2 -0.0
y19_r2 -4.122136659789888e-15
SH4_r2 -4.122136659789888e-15
SL4_r2 -0.0
y20_r2 -2.4251434194155763e-15
y21_r2 -5.0263612716427986e-15
y22_r2 -0.0
y23_r2 0.0
SH5_r2 -2.456368441983159e-15
SL5_r2 -0.0
y24_r2 6.9692515647368225e-16
y25_r2 3.1884217488453714e-15
y26_r2 -0.0
y27_r2 -6.780600386724345e-16
SH6_r2 7.036472099430924e-16
SL6_r2 -0.0
y28_r2 2.5270584236292137e-15
y29_r2 -5.0263612716427986e-15
y30_r2 -0.0
y31_r2 2.5097111888694457e-15
SH7_r2 2.5270584236292137e-15
SL7_r2 -0.0
y32_r2 -2.7755575615628914e-17
y33_r2 -6.441028266301885e-15
y34_r2 -0.0
y35_r2 -1.3877787807814457e-17
SH8_r2 -0.0
SL8_r2 1.1168366578773181e-15
y36_r2 1.4454583363576745e-15
y37_r2 -8.923417560424696e-15
y38_r2 -0.0
y39_r2 -0.0
SH9_r2 -0.0
SL9_r2 -0.0
y40_r2 0.0
y41_r2 1.5525775109992423e-16
y42_r2 -0.0
y43_r2 2.684484579074109e-16
SH10_r2 -0.0
SL10_r2 -0.0
y44_r2 2.7755575615628914e-17
y45_r2 -4.430483757644765e-15
y46_r2 -0.0
y47_r2 2.7755575615628914e-17
SH11_r2 -0.0
SL11_r2 -0.0
y48_r2 -0.0
y49_r2 -0.0
y50_r2 -0.0
y51_r2 -0.0
SH12_r2 0.0
SL12_r2 -0.0
y52_r2 0.0
y53_r2 -4.692427002517263e-15
y54_r2 -0.0
y55_r2 0.0
SH13_r2 -0.0
SL13_r2 -4.681151299923414e-15
y56_r2 -2.4555010802451704e-15
y57_r2 -4.807352432800727e-16
y58_r2 -0.0
y59_r2 -2.456368441983159e-15
SH14_r2 -2.456368441983159e-15
SL14_r2 -1.4719128693663208e-15
y60_r2 0.9999999999999997
y61_r2 -3.5605199344423966e-16
y62_r2 -0.0
y63_r2 1.0000000000000029
SH15_r2 1.0000000000000029
SL15_r2 3.1547030612810723e-15
y0_r3 -0.0
y1_r3 -0.0
y2_r3 -0.0
y3_r3 -0.0
SH0_r3 -0.0
SL0_r3 -0.0
y4_r3 -1.3319206848549925e-14
y5_r3 7.06292663243957e-15
y6_r3 -7.95977866951958e-15
y7_r3 -4.89538964920655e-15
SH1_r3 -5.0367696124986594e-15
SL1_r3 -0.0
y8_r3 2.8878809066323896e-15
y9_r3 7.728193085476676e-15
y10_r3 -7.95977866951958e-15
y11_r3 1.1874182193061245e-15
SH2_r3 2.929514270055833e-15
SL2_r3 1.4385194424537673e-15
y12_r3 1.000000000000002
y13_r3 7.781102151493968e-15
y14_r3 -5.556319293553713e-15
y15_r3 0.9999999999999999
SH3_r3 1.000000000000002
SL3_r3 9.020562075079397e-16
y16_r3 -0.0
y17_r3 0.0
y18_r3 0.0
y19_r3 -0.0
SH4_r3 0.0
SL4_r3 0.0
y20_r3 -0.0
y21_r3 1.0786510573623787e-14
y22_r3 -4.7444687067965674e-15
y23_r3 -0.0
SH5_r3 -4.801714581503802e-15
SL5_r3 -0.0
y24_r3 -0.0
y25_r3 -1.0810796702287462e-14
y26_r3 -1.0810796702287462e-14
y27_r3 -0.0
SH6_r3 -1.0817735596191369e-14
SL6_r3 -0.0
y28_r3 -0.0
y29_r3 0.0
y30_r3 -7.721254191572768e-15
y31_r3 -0.0
SH7_r3 -3.2829641782861074e-16
SL7_r3 -0.0
y32_r3 4.08006961549745e-14
y33_r3 1.0033640585049852e-14
y34_r3 -0.0
y35_r3 -0.0
SH8_r3 -0.0
SL8_r3 0.0
y36_r3 -0.0
y37_r3 -0.0
y38_r3 -0.0
y39_r3 -0.0
SH9_r3 -0.0
SL9_r3 -0.0
y40_r3 -0.0
y41_r3 -0.0
y42_r3 0.0
y43_r3 0.0
SH10_r3 -0.0
SL10_r3 0.0
y44_r3 -0.0
y45_r3 -0.0
y46_r3 -0.0
y47_r3 -0.0
SH11_r3 -0.0
SL11_r3 0.0
y48_r3 -3.2959746043559335e-16
y49_r3 -0.0
y50_r3 -0.0
y51_r3 -5.773159728050814e-15
SH12_r3 -6.591949208711867e-16
SL12_r3 -0.0
y52_r3 0.0
y53_r3 1.6672861008482087e-15
y54_r3 -4.163336342344337e-17
y55_r3 0.0
SH13_r3 -0.0
SL13_r3 -0.0
y56_r3 3.042011087472929e-14
y57_r3 1.454392162258955e-14
y58_r3 -3.885780586188048e-16
y59_r3 0.0
SH14_r3 -0.0
SL14_r3 -0.0
y60_r3 1.0
y61_r3 -5.551115123125783e-16
y62_r3 -6.938893903907228e-18
y63_r3 1.0000000000000029
SH15_r3 1.0
SL15_r3 -2.3314683517128287e-15
y0_r4 -1.4147789817868377e-14
y1_r4 3.570494594429263e-14
y2_r4 1.0000000000000147
y3_r4 1.0
SH0_r4 1.0
SL0_r4 -0.0
y4_r4 -0.0
y5_r4 -0.0
y6_r4 -0.0
y7_r4 -0.0
SH1_r4 -0.0
SL1_r4 -0.0
y8_r4 4.08006961549745e-14
y9_r4 0.0
y10_r4 -0.0
y11_r4 -2.040034807748725e-14
SH2_r4 0.0
SL2_r4 -0.0
y12_r4 2.220446049250313e-16
y13_r4 3.570494594429263e-14
y14_r4 1.0000000000000147
y15_r4 1.0000000000000575
SH3_r4 1.0
SL3_r4 -0.0
y16_r4 -0.0
y17_r4 1.2415415917566008e-14
y18_r4 1.1611805267319752e-15
y19_r4 -4.773959005888173e-15
SH4_r4 7.724723638524722e-15
SL4_r4 -0.0
y20_r4 -0.0
y21_r4 1.1013759348976748e-14
y22_r4 -5.551115123125783e-17
y23_r4 -0.0
SH5_r4 5.551115123125783e-17
SL5_r4 -0.0
y24_r4 -0.0
y25_r4 -0.0
y26_r4 2.7582103268031233e-15
y27_r4 -7.202571872255703e-15
SH6_r4 2.7547408798511697e-15
SL6_r4 -0.0
y28_r4 -0.0
y29_r4 -0.0
y30_r4 -0.0
y31_r4 -0.0
SH7_r4 -0.0
SL7_r4 -0.0
y32_r4 -3.8817690381498515e-15
y33_r4 -5.653463808208414e-15
y34_r4 -1.3877787807814457e-17
y35_r4 -0.0
SH8_r4 -7.95977866951958e-15
SL8_r4 -2.449104287427506e-15
y36_r4 -1.5913919487742234e-15
y37_r4 -1.550582579001869e-14
y38_r4 6.938893903907228e-18
y39_r4 -0.0
SH9_r4 -7.778500066280003e-15
SL9_r4 7.751178171533368e-15
y40_r4 -0.0
y41_r4 -0.0
y42_r4 -0.0
y43_r4 -0.0
SH10_r4 -0.0
SL10_r4 0.0
y44_r4 1.6653345369377348e-16
y45_r4 0.0
y46_r4 6.938893903907228e-18
y47_r4 -0.0
SH11_r4 -0.0
SL11_r4 3.3306690738754696e-16
y48_r4 2.1899149160731213e-14
y49_r4 0.0
y50_r4 1.0
y51_r4 0.9999999999999999
SH12_r4 0.9999999999999999
SL12_r4 -0.0
y52_r4 -0.0
y53_r4 -0.0
y54_r4 -0.0
y55_r4 -0.0
SH13_r4 -0.0
SL13_r4 -0.0
y56_r4 -0.0
y57_r4 -0.0
y58_r4 -0.0
y59_r4 -0.0
SH14_r4 -0.0
SL14_r4 -0.0
y60_r4 -4.901634653720066e-14
y61_r4 0.0
y62_r4 1.0000000000000155
y63_r4 1.0
SH15_r4 1.0
SL15_r4 -0.0
y0_r5 -4.984901380566953e-14
y1_r5 -0.0
y2_r5 -0.0
y3_r5 9.298117831235686e-15
SH0_r5 -0.0
SL0_r5 -4.984901380566953e-14
y4_r5 -0.0
y5_r5 -0.0
y6_r5 -0.0
y7_r5 -0.0
SH1_r5 -0.0
SL1_r5 -0.0
y8_r5 -1.667719781717203e-15
y9_r5 -0.0
y10_r5 -0.0
y11_r5 1.5601669262066409e-15
SH2_r5 -0.0
SL2_r5 -0.0
y12_r5 -3.2529534621517087e-14
y13_r5 -0.0
y14_r5 -0.0
y15_r5 -0.0
SH3_r5 -0.0
SL3_r5 -0.0
y16_r5 0.0
y17_r5 3.55653007044765e-14
y18_r5 0.0
y19_r5 -0.0
SH4_r5 3.573270151990826e-14
SL4_r5 0.0
y20_r5 -2.2811613709095013e-15
y21_r5 4.615231807836295e-15
y22_r5 -0.0
y23_r5 -0.0
SH5_r5 4.62910959564411e-15
SL5_r5 1.182214048878194e-15
y24_r5 -0.0
y25_r5 0.0
y26_r5 -0.0
y27_r5 -0.0
SH6_r5 -0.0
SL6_r5 -0.0
y28_r5 2.2811613709095013e-15
y29_r5 1.1102230246251565e-16
y30_r5 -0.0
y31_r5 -0.0
SH7_r5 -0.0
SL7_r5 -0.0
y32_r5 4.3146042294495146e-14
y33_r5 1.000000000000039
y34_r5 -4.601874437071274e-14
y35_r5 -0.0
SH8_r5 1.0000000000000147
SL8_r5 0.0
y36_r5 -6.671095967303309e-16
y37_r5 0.0
y38_r5 3.88415428292932e-15
y39_r5 0.0
SH9_r5 -0.0
SL9_r5 -0.0
y40_r5 -5.551115123125783e-17
y41_r5 0.0
y42_r5 -0.0
y43_r5 0.0
SH10_r5 -0.0
SL10_r5 -0.0
y44_r5 4.275746423587634e-14
y45_r5 1.000000000000025
y46_r5 -4.601874437071274e-14
y47_r5 0.0
SH11_r5 1.0000000000000153
SL11_r5 -1.3493099649306468e-14
y48_r5 -1.1102230246251565e-16
y49_r5 1.0
y50_r5 0.0
y51_r5 -1.942890293094024e-14
SH12_r5 1.0
SL12_r5 3.991251773527438e-14
y52_r5 -0.0
y53_r5 0.0
y54_r5 0.0
y55_r5 0.0
SH13_r5 -0.0
SL13_r5 -0.0
y56_r5 -0.0
y57_r5 -0.0
y58_r5 -0.0
y59_r5 -0.0
SH14_r5 -0.0
SL14_r5 -0.0
y60_r5 -1.3877787807814457e-17
y61_r5 1.0
y62_r5 0.0
y63_r5 0.0
SH15_r5 1.0
SL15_r5 -0.0
y0_r6 -0.0
y1_r6 -4.299338662860919e-14
y2_r6 -0.0
y3_r6 6.078471059822732e-15
SH0_r6 -4.296563105299356e-14
SL0_r6 -0.0
y4_r6 -0.0
y5_r6 0.0
y6_r6 -0.0
y7_r6 -2.2811613709095013e-15
SH1_r6 -0.0
SL1_r6 -0.0
y8_r6 -0.0
y9_r6 4.275746423587634e-14
y10_r6 -0.0
y11_r6 -0.0
SH2_r6 4.2826853174915414e-14
SL2_r6 -0.0
y12_r6 -0.0
y13_r6 0.0
y14_r6 -0.0
y15_r6 0.0
SH3_r6 0.0
SL3_r6 -0.0
y16_r6 -0.0
y17_r6 -0.0
y18_r6 -0.0
y19_r6 -0.0
SH4_r6 -0.0
SL4_r6 -0.0
y20_r6 0.0
y21_r6 3.5398767250782726e-14
y22_r6 0.0
y23_r6 2.0294421525235418e-14
SH5_r6 3.55653007044765e-14
SL5_r6 -0.0
y24_r6 0.0
y25_r6 1.0000000000000249
y26_r6 0.0
y27_r6 -5.902505047228335e-15
SH6_r6 1.0000000000000289
SL6_r6 -0.0
y28_r6 -2.7755575615628914e-17
y29_r6 1.0
y30_r6 0.0
y31_r6 0.0
SH7_r6 1.0
SL7_r6 0.0
y32_r6 -0.0
y33_r6 -0.0
y34_r6 -0.0
y35_r6 -0.0
SH8_r6 -0.0
SL8_r6 -0.0
y36_r6 -0.0
y37_r6 -0.0
y38_r6 -0.0
y39_r6 -0.0
SH9_r6 0.0
SL9_r6 -0.0
y40_r6 -0.0
y41_r6 -9.00190024518549e-15
y42_r6 -0.0
y43_r6 -0.0
SH10_r6 -4.601874437071274e-14
SL10_r6 -0.0
y44_r6 -0.0
y45_r6 0.0
y46_r6 -0.0
y47_r6 -0.0
SH11_r6 -0.0
SL11_r6 -0.0
y48_r6 0.0
y49_r6 0.0
y50_r6 -4.274358644806853e-15
y51_r6 3.941291737419306e-15
SH12_r6 -5.551115123125783e-17
SL12_r6 -0.0
y52_r6 -0.0
y53_r6 -0.0
y54_r6 -0.0
y55_r6 -0.0
SH13_r6 -0.0
SL13_r6 -0.0
y56_r6 1.4432899320127035e-15
y57_r6 1.1333300834262539e-17
y58_r6 0.0
y59_r6 1.1379786002407855e-14
SH14_r6 -0.0
SL14_r6 -0.0
y60_r6 1.9373391779708982e-14
y61_r6 -2.731148640577885e-14
y62_r6 0.0
y63_r6 1.9484414082171497e-14
SH15_r6 -0.0
SL15_r6 -0.0
y0_r7 -0.0
y1_r7 -0.0
y2_r7 -0.0
y3_r7 -0.0
SH0_r7 -0.0
SL0_r7 -0.0
y4_r7 9.2148511043888e-15
y5_r7 -4.468647674116255e-15
y6_r7 -4.6351811278100286e-15
y7_r7 5.551115123125783e-17
SH1_r7 -0.0
SL1_r7 4.6074255521944e-15
y8_r7 -0.0
y9_r7 -0.0
y10_r7 -0.0
y11_r7 -0.0
SH2_r7 -0.0
SL2_r7 -0.0
y12_r7 9.159339953157541e-15
y13_r7 -8.93729534823251e-15
y14_r7 -4.6351811278100286e-15
y15_r7 -0.0
SH3_r7 -0.0
SL3_r7 9.103828801926284e-15
y16_r7 -8.947920529522868e-16
y17_r7 -3.1807889655510735e-14
y18_r7 4.368727601899991e-14
y19_r7 -0.0
SH4_r7 -0.0
SL4_r7 4.163336342344337e-16
y20_r7 2.1680302952215014e-14
y21_r7 0.999999999999898
y22_r7 8.007893880234288e-14
y23_r7 0.0
SH5_r7 1.0
SL5_r7 0.9999999999998624
y24_r7 -2.726584149431721e-14
y25_r7 3.64516359804834e-14
y26_r7 -0.0
y27_r7 -0.0
SH6_r7 0.0
SL6_r7 8.366977900450823e-15
y28_r7 -1.9898389576680775e-14
y29_r7 -2.731148640577885e-14
y30_r7 -0.0
y31_r7 -0.0
SH7_r7 -2.7200464103316335e-14
SL7_r7 -2.6978419498391304e-14
y32_r7 -0.0
y33_r7 -0.0
y34_r7 -0.0
y35_r7 -0.0
SH8_r7 -0.0
SL8_r7 -0.0
y36_r7 0.0
y37_r7 5.551115123125783e-17
y38_r7 4.2500725161431774e-17
y39_r7 -1.3877787807814457e-17
SH9_r7 -0.0
SL9_r7 -9.71445146547012e-17
y40_r7 -0.0
y41_r7 -0.0
y42_r7 -0.0
y43_r7 -0.0
SH10_r7 -0.0
SL10_r7 -0.0
y44_r7 -6.938893903907228e-18
y45_r7 4.218847493575595e-15
y46_r7 4.2500725161431774e-17
y47_r7 -1.3877787807814457e-17
SH11_r7 -0.0
SL11_r7 4.163336342344337e-15
y48_r7 -1.1102230246251565e-16
y49_r7 -2.9837243786801082e-15
y50_r7 -0.0
y51_r7 0.0
SH12_r7 -1.1102230246251565e-16
SL12_r7 -0.0
y52_r7 0.0
y53_r7 -2.2055382693786374e-15
y54_r7 0.0
y55_r7 0.0
SH13_r7 -0.0
SL13_r7 -0.0
y56_r7 -0.0
y57_r7 -0.0
y58_r7 -0.0
y59_r7 -0.0
SH14_r7 -0.0
SL14_r7 -0.0
y60_r7 0.0
y61_r7 1.1213252548714081e-14
y62_r7 -1.9797421612400133e-15
y63_r7 0.0
SH15_r7 1.9484414082171497e-14
SL15_r7 -0.0
y0_r8 6.328271240363392e-15
y1_r8 9.2148511043888e-15
y2_r8 -0.0
y3_r8 5.9396931817445875e-15
SH0_r8 9.2148511043888e-15
SL0_r8 -0.0
y4_r8 1.0269671397999947e-14
y5_r8 1.4059987982900646e-14
y6_r8 0.0
y7_r8 0.0
SH1_r8 2.1680302952215014e-14
SL1_r8 2.854083614410585e-14
y8_r8 -6.938893903907228e-18
y9_r8 3.469446951953614e-18
y10_r8 -0.0
y11_r8 0.0
SH2_r8 -3.469446951953614e-18
SL2_r8 -0.0
y12_r8 1.1102230246251565e-16
y13_r8 5.551115123125783e-17
y14_r8 -0.0
y15_r8 -0.0
SH3_r8 -0.0
SL3_r8 -0.0
y16_r8 -0.0
y17_r8 -7.616129948928574e-14
y18_r8 -0.0
y19_r8 -1.458277942845143e-13
SH4_r8 -7.616129948928574e-14
SL4_r8 -0.0
y20_r8 -1.1594891713428979e-13
y21_r8 1.0000000000000837
y22_r8 -2.7004440350530956e-14
y23_r8 1.0000000000000568
SH5_r8 1.0
SL5_r8 -1.477290512141849e-13
y24_r8 -2.2551405187698492e-17
y25_r8 2.55351295663786e-15
y26_r8 1.7139067942650854e-15
y27_r8 -0.0
SH6_r8 2.581268532253489e-15
SL6_r8 -0.0
y28_r8 2.5271451598030126e-14
y29_r8 1.2388527703688368e-14
y30_r8 1.1995612836379621e-15
y31_r8 -0.0
SH7_r8 1.1213252548714081e-14
SL7_r8 -1.3408382477236858e-14
y32_r8 -4.6351811278100286e-15
y33_r8 -4.6629367034256575e-15
y34_r8 -0.0
y35_r8 -0.0
SH8_r8 -4.6351811278100286e-15
SL8_r8 -0.0
y36_r8 2.844736947550168e-14
y37_r8 5.551115123125783e-17
y38_r8 7.598088824778415e-15
y39_r8 4.015649424007037e-14
SH9_r8 -0.0
SL9_r8 4.8777092784023397e-14
y40_r8 4.206704429243757e-17
y41_r8 4.992643923037638e-14
y42_r8 -0.0
y43_r8 -5.8224196715712e-14
SH10_r8 4.2500725161431774e-17
SL10_r8 -0.0
y44_r8 0.0
y45_r8 1.1102230246251565e-16
y46_r8 -0.0
y47_r8 -0.0
SH11_r8 -0.0
SL11_r8 -0.0
y48_r8 5.551115123125783e-17
y49_r8 5.551115123125783e-17
y50_r8 5.551115123125783e-17
y51_r8 -5.551115123125783e-17
SH12_r8 5.551115123125783e-17
SL12_r8 -0.0
y52_r8 -0.0
y53_r8 -0.0
y54_r8 -0.0
y55_r8 -0.0
SH13_r8 -0.0
SL13_r8 0.0
y56_r8 1.3877787807814457e-17
y57_r8 2.7755575615628914e-17
y58_r8 -0.0
y59_r8 -2.7755575615628914e-17
SH14_r8 -0.0
SL14_r8 0.0
y60_r8 0.0
y61_r8 0.0
y62_r8 0.0
y63_r8 0.0
SH15_r8 -0.0
SL15_r8 2.220446049250313e-16
y0_r9 -0.0
y1_r9 -6.58501031480796e-15
y2_r9 -0.0
y3_r9 0.0
SH0_r9 -0.0
SL0_r9 -0.0
y4_r9 -0.0
y5_r9 -1.2759238110504612e-13
y6_r9 -0.0
y7_r9 -1.1619871731483045e-13
SH1_r9 -1.1594891713428979e-13
SL1_r9 -0.0
y8_r9 -0.0
y9_r9 3.0177249588092536e-14
y10_r9 -0.0
y11_r9 2.4522051056408145e-14
SH2_r9 2.844736947550168e-14
SL2_r9 -0.0
y12_r9 0.0
y13_r9 0.0
y14_r9 0.0
y15_r9 -0.0
SH3_r9 1.3877787807814457e-17
SL3_r9 -0.0
y16_r9 -0.0
y17_r9 -6.938893903907228e-18
y18_r9 -0.0
y19_r9 -9.103828801926284e-15
SH4_r9 5.551115123125783e-17
SL4_r9 -0.0
y20_r9 -0.0
y21_r9 1.0000000000000628
y22_r9 -0.0
y23_r9 1.000000000000076
SH5_r9 1.0000000000000837
SL5_r9 -0.0
y24_r9 -0.0
y25_r9 -2.640943019827091e-14
y26_r9 -0.0
y27_r9 0.0
SH6_r9 -0.0
SL6_r9 -0.0
y28_r9 -0.0
y29_r9 -1.3877787807814457e-17
y30_r9 -0.0
y31_r9 1.1102230246251565e-16
SH7_r9 2.7755575615628914e-17
SL7_r9 -0.0
y32_r9 0.0
y33_r9 5.551115123125783e-17
y34_r9 0.0
y35_r9 0.0
SH8_r9 -0.0
SL8_r9 -0.0
y36_r9 -0.0
y37_r9 -4.8808179720083444e-14
y38_r9 -0.0
y39_r9 -0.0
SH9_r9 -2.7115462652993472e-14
SL9_r9 -0.0
y40_r9 -0.0
y41_r9 7.594619377826461e-15
y42_r9 -0.0
y43_r9 7.598088824778415e-15
SH10_r9 7.598088824778415e-15
SL10_r9 -0.0
y44_r9 -1.3877787807814457e-17
y45_r9 0.0
y46_r9 2.7755575615628914e-17
y47_r9 -0.0
SH11_r9 -5.551115123125783e-17
SL11_r9 -0.0
y48_r9 -0.0
y49_r9 2.220446049250313e-16
y50_r9 -0.0
y51_r9 0.0
SH12_r9 -0.0
SL12_r9 -0.0
y52_r9 -0.0
y53_r9 1.0000000000000906
y54_r9 -9.059419880941277e-14
y55_r9 1.0
SH13_r9 1.0
SL13_r9 -0.0
y56_r9 -0.0
y57_r9 6.929634817354202e-14
y58_r9 -0.0
y59_r9 4.015649424007037e-14
SH14_r9 4.015649424007037e-14
SL14_r9 -0.0
y60_r9 2.7755575615628914e-17
y61_r9 -5.551115123125783e-17
y62_r9 -0.0
y63_r9 -0.0
SH15_r9 0.0
SL15_r9 -0.0
